; Benchmark for LTL-sketching problem
(set-logic QF_UF)
(set-info :status unknown)
(declare-fun z_0_0_0 () Bool)
(declare-fun z_0_1_0 () Bool)
(declare-fun z_0_2_0 () Bool)
(declare-fun z_0_3_0 () Bool)
(declare-fun z_0_4_0 () Bool)
(declare-fun z_0_5_0 () Bool)
(declare-fun z_0_6_0 () Bool)
(declare-fun z_0_7_0 () Bool)
(declare-fun z_0_8_0 () Bool)
(declare-fun z_0_9_0 () Bool)
(declare-fun z_0_10_0 () Bool)
(declare-fun z_0_11_0 () Bool)
(declare-fun z_0_12_0 () Bool)
(declare-fun z_0_13_0 () Bool)
(declare-fun z_0_14_0 () Bool)
(declare-fun z_0_15_0 () Bool)
(declare-fun z_0_16_0 () Bool)
(declare-fun z_0_17_0 () Bool)
(declare-fun z_0_18_0 () Bool)
(declare-fun z_0_19_0 () Bool)
(declare-fun z_1_0_0 () Bool)
(declare-fun x_0_! () Bool)
(declare-fun x_0_X () Bool)
(declare-fun x_0_F () Bool)
(declare-fun x_0_G () Bool)
(declare-fun z_1_1_0 () Bool)
(declare-fun z_1_2_0 () Bool)
(declare-fun z_1_3_0 () Bool)
(declare-fun z_1_4_0 () Bool)
(declare-fun z_1_5_0 () Bool)
(declare-fun z_1_6_0 () Bool)
(declare-fun z_1_7_0 () Bool)
(declare-fun z_1_8_0 () Bool)
(declare-fun z_1_9_0 () Bool)
(declare-fun z_1_10_0 () Bool)
(declare-fun z_1_10_1 () Bool)
(declare-fun z_1_10_2 () Bool)
(declare-fun z_0_10_1 () Bool)
(declare-fun z_0_10_2 () Bool)
(declare-fun z_1_11_0 () Bool)
(declare-fun z_1_11_1 () Bool)
(declare-fun z_1_11_2 () Bool)
(declare-fun z_0_11_1 () Bool)
(declare-fun z_0_11_2 () Bool)
(declare-fun z_1_12_0 () Bool)
(declare-fun z_1_12_1 () Bool)
(declare-fun z_1_12_3 () Bool)
(declare-fun z_1_12_2 () Bool)
(declare-fun z_0_12_1 () Bool)
(declare-fun z_0_12_2 () Bool)
(declare-fun z_0_12_3 () Bool)
(declare-fun z_1_13_0 () Bool)
(declare-fun z_1_13_1 () Bool)
(declare-fun z_1_13_3 () Bool)
(declare-fun z_1_13_2 () Bool)
(declare-fun z_0_13_1 () Bool)
(declare-fun z_0_13_2 () Bool)
(declare-fun z_0_13_3 () Bool)
(declare-fun z_1_14_0 () Bool)
(declare-fun z_1_14_1 () Bool)
(declare-fun z_1_14_7 () Bool)
(declare-fun z_1_14_6 () Bool)
(declare-fun z_1_14_5 () Bool)
(declare-fun z_1_14_4 () Bool)
(declare-fun z_1_14_3 () Bool)
(declare-fun z_1_14_2 () Bool)
(declare-fun z_0_14_1 () Bool)
(declare-fun z_0_14_2 () Bool)
(declare-fun z_0_14_3 () Bool)
(declare-fun z_0_14_4 () Bool)
(declare-fun z_0_14_5 () Bool)
(declare-fun z_0_14_6 () Bool)
(declare-fun z_0_14_7 () Bool)
(declare-fun z_1_15_0 () Bool)
(declare-fun z_1_15_1 () Bool)
(declare-fun z_1_15_5 () Bool)
(declare-fun z_1_15_4 () Bool)
(declare-fun z_1_15_3 () Bool)
(declare-fun z_1_15_2 () Bool)
(declare-fun z_0_15_1 () Bool)
(declare-fun z_0_15_2 () Bool)
(declare-fun z_0_15_3 () Bool)
(declare-fun z_0_15_4 () Bool)
(declare-fun z_0_15_5 () Bool)
(declare-fun z_1_16_0 () Bool)
(declare-fun z_1_16_1 () Bool)
(declare-fun z_1_16_6 () Bool)
(declare-fun z_1_16_5 () Bool)
(declare-fun z_1_16_4 () Bool)
(declare-fun z_1_16_3 () Bool)
(declare-fun z_1_16_2 () Bool)
(declare-fun z_0_16_1 () Bool)
(declare-fun z_0_16_2 () Bool)
(declare-fun z_0_16_3 () Bool)
(declare-fun z_0_16_4 () Bool)
(declare-fun z_0_16_5 () Bool)
(declare-fun z_0_16_6 () Bool)
(declare-fun z_1_17_0 () Bool)
(declare-fun z_1_17_1 () Bool)
(declare-fun z_0_17_1 () Bool)
(declare-fun z_1_18_0 () Bool)
(declare-fun z_1_18_1 () Bool)
(declare-fun z_1_18_6 () Bool)
(declare-fun z_1_18_5 () Bool)
(declare-fun z_1_18_4 () Bool)
(declare-fun z_1_18_3 () Bool)
(declare-fun z_1_18_2 () Bool)
(declare-fun z_0_18_1 () Bool)
(declare-fun z_0_18_2 () Bool)
(declare-fun z_0_18_3 () Bool)
(declare-fun z_0_18_4 () Bool)
(declare-fun z_0_18_5 () Bool)
(declare-fun z_0_18_6 () Bool)
(declare-fun z_1_19_0 () Bool)
(declare-fun z_1_19_1 () Bool)
(declare-fun z_1_19_3 () Bool)
(declare-fun z_1_19_2 () Bool)
(declare-fun z_0_19_1 () Bool)
(declare-fun z_0_19_2 () Bool)
(declare-fun z_0_19_3 () Bool)
(assert
 (= z_0_0_0 true))
(assert
 (= z_0_1_0 true))
(assert
 (= z_0_2_0 true))
(assert
 (= z_0_3_0 true))
(assert
 (= z_0_4_0 true))
(assert
 (= z_0_5_0 true))
(assert
 (= z_0_6_0 true))
(assert
 (= z_0_7_0 true))
(assert
 (= z_0_8_0 true))
(assert
 (= z_0_9_0 true))
(assert
 (= z_0_10_0 false))
(assert
 (= z_0_11_0 false))
(assert
 (= z_0_12_0 false))
(assert
 (= z_0_13_0 false))
(assert
 (= z_0_14_0 false))
(assert
 (= z_0_15_0 false))
(assert
 (= z_0_16_0 false))
(assert
 (= z_0_17_0 false))
(assert
 (= z_0_18_0 false))
(assert
 (= z_0_19_0 false))
(assert
 (=> x_0_! (= z_0_0_0 (not z_1_0_0))))
(assert
 (let (($x34 (= z_0_0_0 z_1_0_0)))
 (=> x_0_X $x34)))
(assert
 (=> x_0_F (= z_0_0_0 (or z_1_0_0))))
(assert
 (=> x_0_G (= z_0_0_0 (and z_1_0_0))))
(assert
 (=> x_0_! (= z_0_1_0 (not z_1_1_0))))
(assert
 (let (($x58 (= z_0_1_0 z_1_1_0)))
 (=> x_0_X $x58)))
(assert
 (=> x_0_F (= z_0_1_0 (or z_1_1_0))))
(assert
 (=> x_0_G (= z_0_1_0 (and z_1_1_0))))
(assert
 (=> x_0_! (= z_0_2_0 (not z_1_2_0))))
(assert
 (let (($x77 (= z_0_2_0 z_1_2_0)))
 (=> x_0_X $x77)))
(assert
 (=> x_0_F (= z_0_2_0 (or z_1_2_0))))
(assert
 (=> x_0_G (= z_0_2_0 (and z_1_2_0))))
(assert
 (=> x_0_! (= z_0_3_0 (not z_1_3_0))))
(assert
 (let (($x96 (= z_0_3_0 z_1_3_0)))
 (=> x_0_X $x96)))
(assert
 (=> x_0_F (= z_0_3_0 (or z_1_3_0))))
(assert
 (=> x_0_G (= z_0_3_0 (and z_1_3_0))))
(assert
 (=> x_0_! (= z_0_4_0 (not z_1_4_0))))
(assert
 (let (($x115 (= z_0_4_0 z_1_4_0)))
 (=> x_0_X $x115)))
(assert
 (=> x_0_F (= z_0_4_0 (or z_1_4_0))))
(assert
 (=> x_0_G (= z_0_4_0 (and z_1_4_0))))
(assert
 (=> x_0_! (= z_0_5_0 (not z_1_5_0))))
(assert
 (let (($x134 (= z_0_5_0 z_1_5_0)))
 (=> x_0_X $x134)))
(assert
 (=> x_0_F (= z_0_5_0 (or z_1_5_0))))
(assert
 (=> x_0_G (= z_0_5_0 (and z_1_5_0))))
(assert
 (=> x_0_! (= z_0_6_0 (not z_1_6_0))))
(assert
 (let (($x153 (= z_0_6_0 z_1_6_0)))
 (=> x_0_X $x153)))
(assert
 (=> x_0_F (= z_0_6_0 (or z_1_6_0))))
(assert
 (=> x_0_G (= z_0_6_0 (and z_1_6_0))))
(assert
 (=> x_0_! (= z_0_7_0 (not z_1_7_0))))
(assert
 (let (($x172 (= z_0_7_0 z_1_7_0)))
 (=> x_0_X $x172)))
(assert
 (=> x_0_F (= z_0_7_0 (or z_1_7_0))))
(assert
 (=> x_0_G (= z_0_7_0 (and z_1_7_0))))
(assert
 (=> x_0_! (= z_0_8_0 (not z_1_8_0))))
(assert
 (let (($x191 (= z_0_8_0 z_1_8_0)))
 (=> x_0_X $x191)))
(assert
 (=> x_0_F (= z_0_8_0 (or z_1_8_0))))
(assert
 (=> x_0_G (= z_0_8_0 (and z_1_8_0))))
(assert
 (=> x_0_! (= z_0_9_0 (not z_1_9_0))))
(assert
 (let (($x210 (= z_0_9_0 z_1_9_0)))
 (=> x_0_X $x210)))
(assert
 (=> x_0_F (= z_0_9_0 (or z_1_9_0))))
(assert
 (=> x_0_G (= z_0_9_0 (and z_1_9_0))))
(assert
 (=> x_0_! (= z_0_10_0 (not z_1_10_0))))
(assert
 (let (($x230 (= z_0_10_0 z_1_10_1)))
 (=> x_0_X $x230)))
(assert
 (let (($x235 (= z_0_10_0 (or z_1_10_0 z_1_10_1 z_1_10_2))))
 (=> x_0_F $x235)))
(assert
 (let (($x239 (= z_0_10_0 (and z_1_10_0 z_1_10_1 z_1_10_2))))
 (=> x_0_G $x239)))
(assert
 (=> x_0_! (= z_0_10_1 (not z_1_10_1))))
(assert
 (let (($x249 (= z_0_10_1 z_1_10_2)))
 (=> x_0_X $x249)))
(assert
 (let (($x253 (= z_0_10_1 (or z_1_10_1 z_1_10_2))))
 (=> x_0_F $x253)))
(assert
 (let (($x257 (= z_0_10_1 (and z_1_10_1 z_1_10_2))))
 (=> x_0_G $x257)))
(assert
 (=> x_0_! (= z_0_10_2 (not z_1_10_2))))
(assert
 (let (($x267 (= z_0_10_2 z_1_10_2)))
 (=> x_0_X $x267)))
(assert
 (=> x_0_F (= z_0_10_2 (or z_1_10_2))))
(assert
 (=> x_0_G (= z_0_10_2 (and z_1_10_2))))
(assert
 (=> x_0_! (= z_0_11_0 (not z_1_11_0))))
(assert
 (let (($x287 (= z_0_11_0 z_1_11_1)))
 (=> x_0_X $x287)))
(assert
 (let (($x291 (or z_1_11_0 z_1_11_1 z_1_11_2)))
 (let (($x292 (= z_0_11_0 $x291)))
 (=> x_0_F $x292))))
(assert
 (let (($x295 (and z_1_11_0 z_1_11_1 z_1_11_2)))
 (let (($x296 (= z_0_11_0 $x295)))
 (=> x_0_G $x296))))
(assert
 (=> x_0_! (= z_0_11_1 (not z_1_11_1))))
(assert
 (let (($x306 (= z_0_11_1 z_1_11_2)))
 (=> x_0_X $x306)))
(assert
 (let (($x291 (or z_1_11_0 z_1_11_1 z_1_11_2)))
 (let (($x309 (= z_0_11_1 $x291)))
 (=> x_0_F $x309))))
(assert
 (let (($x295 (and z_1_11_0 z_1_11_1 z_1_11_2)))
 (let (($x312 (= z_0_11_1 $x295)))
 (=> x_0_G $x312))))
(assert
 (=> x_0_! (= z_0_11_2 (not z_1_11_2))))
(assert
 (let (($x322 (= z_0_11_2 z_1_11_0)))
 (=> x_0_X $x322)))
(assert
 (let (($x291 (or z_1_11_0 z_1_11_1 z_1_11_2)))
 (let (($x325 (= z_0_11_2 $x291)))
 (=> x_0_F $x325))))
(assert
 (let (($x295 (and z_1_11_0 z_1_11_1 z_1_11_2)))
 (let (($x328 (= z_0_11_2 $x295)))
 (=> x_0_G $x328))))
(assert
 (=> x_0_! (= z_0_12_0 (not z_1_12_0))))
(assert
 (let (($x340 (= z_0_12_0 z_1_12_1)))
 (=> x_0_X $x340)))
(assert
 (let (($x346 (= z_0_12_0 (or z_1_12_0 z_1_12_1 z_1_12_2 z_1_12_3))))
 (=> x_0_F $x346)))
(assert
 (let (($x350 (= z_0_12_0 (and z_1_12_0 z_1_12_1 z_1_12_2 z_1_12_3))))
 (=> x_0_G $x350)))
(assert
 (=> x_0_! (= z_0_12_1 (not z_1_12_1))))
(assert
 (let (($x360 (= z_0_12_1 z_1_12_2)))
 (=> x_0_X $x360)))
(assert
 (let (($x363 (or z_1_12_1 z_1_12_2 z_1_12_3)))
 (let (($x364 (= z_0_12_1 $x363)))
 (=> x_0_F $x364))))
(assert
 (let (($x367 (and z_1_12_1 z_1_12_2 z_1_12_3)))
 (let (($x368 (= z_0_12_1 $x367)))
 (=> x_0_G $x368))))
(assert
 (=> x_0_! (= z_0_12_2 (not z_1_12_2))))
(assert
 (let (($x378 (= z_0_12_2 z_1_12_3)))
 (=> x_0_X $x378)))
(assert
 (let (($x363 (or z_1_12_1 z_1_12_2 z_1_12_3)))
 (let (($x381 (= z_0_12_2 $x363)))
 (=> x_0_F $x381))))
(assert
 (let (($x367 (and z_1_12_1 z_1_12_2 z_1_12_3)))
 (let (($x384 (= z_0_12_2 $x367)))
 (=> x_0_G $x384))))
(assert
 (=> x_0_! (= z_0_12_3 (not z_1_12_3))))
(assert
 (let (($x394 (= z_0_12_3 z_1_12_1)))
 (=> x_0_X $x394)))
(assert
 (let (($x363 (or z_1_12_1 z_1_12_2 z_1_12_3)))
 (let (($x397 (= z_0_12_3 $x363)))
 (=> x_0_F $x397))))
(assert
 (let (($x367 (and z_1_12_1 z_1_12_2 z_1_12_3)))
 (let (($x400 (= z_0_12_3 $x367)))
 (=> x_0_G $x400))))
(assert
 (=> x_0_! (= z_0_13_0 (not z_1_13_0))))
(assert
 (let (($x412 (= z_0_13_0 z_1_13_1)))
 (=> x_0_X $x412)))
(assert
 (let (($x418 (= z_0_13_0 (or z_1_13_0 z_1_13_1 z_1_13_2 z_1_13_3))))
 (=> x_0_F $x418)))
(assert
 (let (($x422 (= z_0_13_0 (and z_1_13_0 z_1_13_1 z_1_13_2 z_1_13_3))))
 (=> x_0_G $x422)))
(assert
 (=> x_0_! (= z_0_13_1 (not z_1_13_1))))
(assert
 (let (($x432 (= z_0_13_1 z_1_13_2)))
 (=> x_0_X $x432)))
(assert
 (let (($x436 (= z_0_13_1 (or z_1_13_1 z_1_13_2 z_1_13_3))))
 (=> x_0_F $x436)))
(assert
 (let (($x440 (= z_0_13_1 (and z_1_13_1 z_1_13_2 z_1_13_3))))
 (=> x_0_G $x440)))
(assert
 (=> x_0_! (= z_0_13_2 (not z_1_13_2))))
(assert
 (let (($x450 (= z_0_13_2 z_1_13_3)))
 (=> x_0_X $x450)))
(assert
 (let (($x453 (or z_1_13_2 z_1_13_3)))
 (let (($x454 (= z_0_13_2 $x453)))
 (=> x_0_F $x454))))
(assert
 (let (($x457 (and z_1_13_2 z_1_13_3)))
 (let (($x458 (= z_0_13_2 $x457)))
 (=> x_0_G $x458))))
(assert
 (=> x_0_! (= z_0_13_3 (not z_1_13_3))))
(assert
 (let (($x468 (= z_0_13_3 z_1_13_2)))
 (=> x_0_X $x468)))
(assert
 (let (($x453 (or z_1_13_2 z_1_13_3)))
 (let (($x471 (= z_0_13_3 $x453)))
 (=> x_0_F $x471))))
(assert
 (let (($x457 (and z_1_13_2 z_1_13_3)))
 (let (($x474 (= z_0_13_3 $x457)))
 (=> x_0_G $x474))))
(assert
 (=> x_0_! (= z_0_14_0 (not z_1_14_0))))
(assert
 (let (($x486 (= z_0_14_0 z_1_14_1)))
 (=> x_0_X $x486)))
(assert
 (let (($x495 (or z_1_14_0 z_1_14_1 z_1_14_2 z_1_14_3 z_1_14_4 z_1_14_5 z_1_14_6 z_1_14_7)))
 (let (($x496 (= z_0_14_0 $x495)))
 (=> x_0_F $x496))))
(assert
 (let (($x499 (and z_1_14_0 z_1_14_1 z_1_14_2 z_1_14_3 z_1_14_4 z_1_14_5 z_1_14_6 z_1_14_7)))
 (let (($x500 (= z_0_14_0 $x499)))
 (=> x_0_G $x500))))
(assert
 (=> x_0_! (= z_0_14_1 (not z_1_14_1))))
(assert
 (let (($x510 (= z_0_14_1 z_1_14_2)))
 (=> x_0_X $x510)))
(assert
 (let (($x513 (or z_1_14_1 z_1_14_2 z_1_14_3 z_1_14_4 z_1_14_5 z_1_14_6 z_1_14_7)))
 (let (($x514 (= z_0_14_1 $x513)))
 (=> x_0_F $x514))))
(assert
 (let (($x517 (and z_1_14_1 z_1_14_2 z_1_14_3 z_1_14_4 z_1_14_5 z_1_14_6 z_1_14_7)))
 (let (($x518 (= z_0_14_1 $x517)))
 (=> x_0_G $x518))))
(assert
 (=> x_0_! (= z_0_14_2 (not z_1_14_2))))
(assert
 (let (($x528 (= z_0_14_2 z_1_14_3)))
 (=> x_0_X $x528)))
(assert
 (let (($x532 (= z_0_14_2 (or z_1_14_2 z_1_14_3 z_1_14_4 z_1_14_5 z_1_14_6 z_1_14_7))))
 (=> x_0_F $x532)))
(assert
 (let (($x536 (= z_0_14_2 (and z_1_14_2 z_1_14_3 z_1_14_4 z_1_14_5 z_1_14_6 z_1_14_7))))
 (=> x_0_G $x536)))
(assert
 (=> x_0_! (= z_0_14_3 (not z_1_14_3))))
(assert
 (let (($x546 (= z_0_14_3 z_1_14_4)))
 (=> x_0_X $x546)))
(assert
 (let (($x550 (= z_0_14_3 (or z_1_14_3 z_1_14_4 z_1_14_5 z_1_14_6 z_1_14_7))))
 (=> x_0_F $x550)))
(assert
 (let (($x554 (= z_0_14_3 (and z_1_14_3 z_1_14_4 z_1_14_5 z_1_14_6 z_1_14_7))))
 (=> x_0_G $x554)))
(assert
 (=> x_0_! (= z_0_14_4 (not z_1_14_4))))
(assert
 (let (($x564 (= z_0_14_4 z_1_14_5)))
 (=> x_0_X $x564)))
(assert
 (let (($x567 (or z_1_14_4 z_1_14_5 z_1_14_6 z_1_14_7)))
 (let (($x568 (= z_0_14_4 $x567)))
 (=> x_0_F $x568))))
(assert
 (let (($x571 (and z_1_14_4 z_1_14_5 z_1_14_6 z_1_14_7)))
 (let (($x572 (= z_0_14_4 $x571)))
 (=> x_0_G $x572))))
(assert
 (=> x_0_! (= z_0_14_5 (not z_1_14_5))))
(assert
 (let (($x582 (= z_0_14_5 z_1_14_6)))
 (=> x_0_X $x582)))
(assert
 (let (($x567 (or z_1_14_4 z_1_14_5 z_1_14_6 z_1_14_7)))
 (let (($x585 (= z_0_14_5 $x567)))
 (=> x_0_F $x585))))
(assert
 (let (($x571 (and z_1_14_4 z_1_14_5 z_1_14_6 z_1_14_7)))
 (let (($x588 (= z_0_14_5 $x571)))
 (=> x_0_G $x588))))
(assert
 (=> x_0_! (= z_0_14_6 (not z_1_14_6))))
(assert
 (let (($x598 (= z_0_14_6 z_1_14_7)))
 (=> x_0_X $x598)))
(assert
 (let (($x567 (or z_1_14_4 z_1_14_5 z_1_14_6 z_1_14_7)))
 (let (($x601 (= z_0_14_6 $x567)))
 (=> x_0_F $x601))))
(assert
 (let (($x571 (and z_1_14_4 z_1_14_5 z_1_14_6 z_1_14_7)))
 (let (($x604 (= z_0_14_6 $x571)))
 (=> x_0_G $x604))))
(assert
 (=> x_0_! (= z_0_14_7 (not z_1_14_7))))
(assert
 (let (($x614 (= z_0_14_7 z_1_14_4)))
 (=> x_0_X $x614)))
(assert
 (let (($x567 (or z_1_14_4 z_1_14_5 z_1_14_6 z_1_14_7)))
 (let (($x617 (= z_0_14_7 $x567)))
 (=> x_0_F $x617))))
(assert
 (let (($x571 (and z_1_14_4 z_1_14_5 z_1_14_6 z_1_14_7)))
 (let (($x620 (= z_0_14_7 $x571)))
 (=> x_0_G $x620))))
(assert
 (=> x_0_! (= z_0_15_0 (not z_1_15_0))))
(assert
 (let (($x632 (= z_0_15_0 z_1_15_1)))
 (=> x_0_X $x632)))
(assert
 (let (($x640 (= z_0_15_0 (or z_1_15_0 z_1_15_1 z_1_15_2 z_1_15_3 z_1_15_4 z_1_15_5))))
 (=> x_0_F $x640)))
(assert
 (let (($x644 (= z_0_15_0 (and z_1_15_0 z_1_15_1 z_1_15_2 z_1_15_3 z_1_15_4 z_1_15_5))))
 (=> x_0_G $x644)))
(assert
 (=> x_0_! (= z_0_15_1 (not z_1_15_1))))
(assert
 (let (($x654 (= z_0_15_1 z_1_15_2)))
 (=> x_0_X $x654)))
(assert
 (let (($x658 (= z_0_15_1 (or z_1_15_1 z_1_15_2 z_1_15_3 z_1_15_4 z_1_15_5))))
 (=> x_0_F $x658)))
(assert
 (let (($x662 (= z_0_15_1 (and z_1_15_1 z_1_15_2 z_1_15_3 z_1_15_4 z_1_15_5))))
 (=> x_0_G $x662)))
(assert
 (=> x_0_! (= z_0_15_2 (not z_1_15_2))))
(assert
 (let (($x672 (= z_0_15_2 z_1_15_3)))
 (=> x_0_X $x672)))
(assert
 (let (($x675 (or z_1_15_2 z_1_15_3 z_1_15_4 z_1_15_5)))
 (let (($x676 (= z_0_15_2 $x675)))
 (=> x_0_F $x676))))
(assert
 (let (($x679 (and z_1_15_2 z_1_15_3 z_1_15_4 z_1_15_5)))
 (let (($x680 (= z_0_15_2 $x679)))
 (=> x_0_G $x680))))
(assert
 (=> x_0_! (= z_0_15_3 (not z_1_15_3))))
(assert
 (let (($x690 (= z_0_15_3 z_1_15_4)))
 (=> x_0_X $x690)))
(assert
 (let (($x675 (or z_1_15_2 z_1_15_3 z_1_15_4 z_1_15_5)))
 (let (($x693 (= z_0_15_3 $x675)))
 (=> x_0_F $x693))))
(assert
 (let (($x679 (and z_1_15_2 z_1_15_3 z_1_15_4 z_1_15_5)))
 (let (($x696 (= z_0_15_3 $x679)))
 (=> x_0_G $x696))))
(assert
 (=> x_0_! (= z_0_15_4 (not z_1_15_4))))
(assert
 (let (($x706 (= z_0_15_4 z_1_15_5)))
 (=> x_0_X $x706)))
(assert
 (let (($x675 (or z_1_15_2 z_1_15_3 z_1_15_4 z_1_15_5)))
 (let (($x709 (= z_0_15_4 $x675)))
 (=> x_0_F $x709))))
(assert
 (let (($x679 (and z_1_15_2 z_1_15_3 z_1_15_4 z_1_15_5)))
 (let (($x712 (= z_0_15_4 $x679)))
 (=> x_0_G $x712))))
(assert
 (=> x_0_! (= z_0_15_5 (not z_1_15_5))))
(assert
 (let (($x722 (= z_0_15_5 z_1_15_2)))
 (=> x_0_X $x722)))
(assert
 (let (($x675 (or z_1_15_2 z_1_15_3 z_1_15_4 z_1_15_5)))
 (let (($x725 (= z_0_15_5 $x675)))
 (=> x_0_F $x725))))
(assert
 (let (($x679 (and z_1_15_2 z_1_15_3 z_1_15_4 z_1_15_5)))
 (let (($x728 (= z_0_15_5 $x679)))
 (=> x_0_G $x728))))
(assert
 (=> x_0_! (= z_0_16_0 (not z_1_16_0))))
(assert
 (let (($x740 (= z_0_16_0 z_1_16_1)))
 (=> x_0_X $x740)))
(assert
 (let (($x748 (or z_1_16_0 z_1_16_1 z_1_16_2 z_1_16_3 z_1_16_4 z_1_16_5 z_1_16_6)))
 (let (($x749 (= z_0_16_0 $x748)))
 (=> x_0_F $x749))))
(assert
 (let (($x752 (and z_1_16_0 z_1_16_1 z_1_16_2 z_1_16_3 z_1_16_4 z_1_16_5 z_1_16_6)))
 (let (($x753 (= z_0_16_0 $x752)))
 (=> x_0_G $x753))))
(assert
 (=> x_0_! (= z_0_16_1 (not z_1_16_1))))
(assert
 (let (($x763 (= z_0_16_1 z_1_16_2)))
 (=> x_0_X $x763)))
(assert
 (let (($x767 (= z_0_16_1 (or z_1_16_1 z_1_16_2 z_1_16_3 z_1_16_4 z_1_16_5 z_1_16_6))))
 (=> x_0_F $x767)))
(assert
 (let (($x771 (= z_0_16_1 (and z_1_16_1 z_1_16_2 z_1_16_3 z_1_16_4 z_1_16_5 z_1_16_6))))
 (=> x_0_G $x771)))
(assert
 (=> x_0_! (= z_0_16_2 (not z_1_16_2))))
(assert
 (let (($x781 (= z_0_16_2 z_1_16_3)))
 (=> x_0_X $x781)))
(assert
 (let (($x785 (= z_0_16_2 (or z_1_16_2 z_1_16_3 z_1_16_4 z_1_16_5 z_1_16_6))))
 (=> x_0_F $x785)))
(assert
 (let (($x789 (= z_0_16_2 (and z_1_16_2 z_1_16_3 z_1_16_4 z_1_16_5 z_1_16_6))))
 (=> x_0_G $x789)))
(assert
 (=> x_0_! (= z_0_16_3 (not z_1_16_3))))
(assert
 (let (($x799 (= z_0_16_3 z_1_16_4)))
 (=> x_0_X $x799)))
(assert
 (let (($x802 (or z_1_16_3 z_1_16_4 z_1_16_5 z_1_16_6)))
 (let (($x803 (= z_0_16_3 $x802)))
 (=> x_0_F $x803))))
(assert
 (let (($x806 (and z_1_16_3 z_1_16_4 z_1_16_5 z_1_16_6)))
 (let (($x807 (= z_0_16_3 $x806)))
 (=> x_0_G $x807))))
(assert
 (=> x_0_! (= z_0_16_4 (not z_1_16_4))))
(assert
 (let (($x817 (= z_0_16_4 z_1_16_5)))
 (=> x_0_X $x817)))
(assert
 (let (($x802 (or z_1_16_3 z_1_16_4 z_1_16_5 z_1_16_6)))
 (let (($x820 (= z_0_16_4 $x802)))
 (=> x_0_F $x820))))
(assert
 (let (($x806 (and z_1_16_3 z_1_16_4 z_1_16_5 z_1_16_6)))
 (let (($x823 (= z_0_16_4 $x806)))
 (=> x_0_G $x823))))
(assert
 (=> x_0_! (= z_0_16_5 (not z_1_16_5))))
(assert
 (let (($x833 (= z_0_16_5 z_1_16_6)))
 (=> x_0_X $x833)))
(assert
 (let (($x802 (or z_1_16_3 z_1_16_4 z_1_16_5 z_1_16_6)))
 (let (($x836 (= z_0_16_5 $x802)))
 (=> x_0_F $x836))))
(assert
 (let (($x806 (and z_1_16_3 z_1_16_4 z_1_16_5 z_1_16_6)))
 (let (($x839 (= z_0_16_5 $x806)))
 (=> x_0_G $x839))))
(assert
 (=> x_0_! (= z_0_16_6 (not z_1_16_6))))
(assert
 (let (($x849 (= z_0_16_6 z_1_16_3)))
 (=> x_0_X $x849)))
(assert
 (let (($x802 (or z_1_16_3 z_1_16_4 z_1_16_5 z_1_16_6)))
 (let (($x852 (= z_0_16_6 $x802)))
 (=> x_0_F $x852))))
(assert
 (let (($x806 (and z_1_16_3 z_1_16_4 z_1_16_5 z_1_16_6)))
 (let (($x855 (= z_0_16_6 $x806)))
 (=> x_0_G $x855))))
(assert
 (=> x_0_! (= z_0_17_0 (not z_1_17_0))))
(assert
 (let (($x867 (= z_0_17_0 z_1_17_1)))
 (=> x_0_X $x867)))
(assert
 (let (($x871 (= z_0_17_0 (or z_1_17_0 z_1_17_1))))
 (=> x_0_F $x871)))
(assert
 (let (($x875 (= z_0_17_0 (and z_1_17_0 z_1_17_1))))
 (=> x_0_G $x875)))
(assert
 (=> x_0_! (= z_0_17_1 (not z_1_17_1))))
(assert
 (let (($x885 (= z_0_17_1 z_1_17_1)))
 (=> x_0_X $x885)))
(assert
 (=> x_0_F (= z_0_17_1 (or z_1_17_1))))
(assert
 (=> x_0_G (= z_0_17_1 (and z_1_17_1))))
(assert
 (=> x_0_! (= z_0_18_0 (not z_1_18_0))))
(assert
 (let (($x905 (= z_0_18_0 z_1_18_1)))
 (=> x_0_X $x905)))
(assert
 (let (($x913 (or z_1_18_0 z_1_18_1 z_1_18_2 z_1_18_3 z_1_18_4 z_1_18_5 z_1_18_6)))
 (let (($x914 (= z_0_18_0 $x913)))
 (=> x_0_F $x914))))
(assert
 (let (($x917 (and z_1_18_0 z_1_18_1 z_1_18_2 z_1_18_3 z_1_18_4 z_1_18_5 z_1_18_6)))
 (let (($x918 (= z_0_18_0 $x917)))
 (=> x_0_G $x918))))
(assert
 (=> x_0_! (= z_0_18_1 (not z_1_18_1))))
(assert
 (let (($x928 (= z_0_18_1 z_1_18_2)))
 (=> x_0_X $x928)))
(assert
 (let (($x932 (= z_0_18_1 (or z_1_18_1 z_1_18_2 z_1_18_3 z_1_18_4 z_1_18_5 z_1_18_6))))
 (=> x_0_F $x932)))
(assert
 (let (($x936 (= z_0_18_1 (and z_1_18_1 z_1_18_2 z_1_18_3 z_1_18_4 z_1_18_5 z_1_18_6))))
 (=> x_0_G $x936)))
(assert
 (=> x_0_! (= z_0_18_2 (not z_1_18_2))))
(assert
 (let (($x946 (= z_0_18_2 z_1_18_3)))
 (=> x_0_X $x946)))
(assert
 (let (($x950 (= z_0_18_2 (or z_1_18_2 z_1_18_3 z_1_18_4 z_1_18_5 z_1_18_6))))
 (=> x_0_F $x950)))
(assert
 (let (($x954 (= z_0_18_2 (and z_1_18_2 z_1_18_3 z_1_18_4 z_1_18_5 z_1_18_6))))
 (=> x_0_G $x954)))
(assert
 (=> x_0_! (= z_0_18_3 (not z_1_18_3))))
(assert
 (let (($x964 (= z_0_18_3 z_1_18_4)))
 (=> x_0_X $x964)))
(assert
 (let (($x967 (or z_1_18_3 z_1_18_4 z_1_18_5 z_1_18_6)))
 (let (($x968 (= z_0_18_3 $x967)))
 (=> x_0_F $x968))))
(assert
 (let (($x971 (and z_1_18_3 z_1_18_4 z_1_18_5 z_1_18_6)))
 (let (($x972 (= z_0_18_3 $x971)))
 (=> x_0_G $x972))))
(assert
 (=> x_0_! (= z_0_18_4 (not z_1_18_4))))
(assert
 (let (($x982 (= z_0_18_4 z_1_18_5)))
 (=> x_0_X $x982)))
(assert
 (let (($x967 (or z_1_18_3 z_1_18_4 z_1_18_5 z_1_18_6)))
 (let (($x985 (= z_0_18_4 $x967)))
 (=> x_0_F $x985))))
(assert
 (let (($x971 (and z_1_18_3 z_1_18_4 z_1_18_5 z_1_18_6)))
 (let (($x988 (= z_0_18_4 $x971)))
 (=> x_0_G $x988))))
(assert
 (=> x_0_! (= z_0_18_5 (not z_1_18_5))))
(assert
 (let (($x998 (= z_0_18_5 z_1_18_6)))
 (=> x_0_X $x998)))
(assert
 (let (($x967 (or z_1_18_3 z_1_18_4 z_1_18_5 z_1_18_6)))
 (let (($x1001 (= z_0_18_5 $x967)))
 (=> x_0_F $x1001))))
(assert
 (let (($x971 (and z_1_18_3 z_1_18_4 z_1_18_5 z_1_18_6)))
 (let (($x1004 (= z_0_18_5 $x971)))
 (=> x_0_G $x1004))))
(assert
 (=> x_0_! (= z_0_18_6 (not z_1_18_6))))
(assert
 (let (($x1014 (= z_0_18_6 z_1_18_3)))
 (=> x_0_X $x1014)))
(assert
 (let (($x967 (or z_1_18_3 z_1_18_4 z_1_18_5 z_1_18_6)))
 (let (($x1017 (= z_0_18_6 $x967)))
 (=> x_0_F $x1017))))
(assert
 (let (($x971 (and z_1_18_3 z_1_18_4 z_1_18_5 z_1_18_6)))
 (let (($x1020 (= z_0_18_6 $x971)))
 (=> x_0_G $x1020))))
(assert
 (=> x_0_! (= z_0_19_0 (not z_1_19_0))))
(assert
 (let (($x1032 (= z_0_19_0 z_1_19_1)))
 (=> x_0_X $x1032)))
(assert
 (let (($x1038 (= z_0_19_0 (or z_1_19_0 z_1_19_1 z_1_19_2 z_1_19_3))))
 (=> x_0_F $x1038)))
(assert
 (let (($x1042 (= z_0_19_0 (and z_1_19_0 z_1_19_1 z_1_19_2 z_1_19_3))))
 (=> x_0_G $x1042)))
(assert
 (=> x_0_! (= z_0_19_1 (not z_1_19_1))))
(assert
 (let (($x1052 (= z_0_19_1 z_1_19_2)))
 (=> x_0_X $x1052)))
(assert
 (let (($x1056 (= z_0_19_1 (or z_1_19_1 z_1_19_2 z_1_19_3))))
 (=> x_0_F $x1056)))
(assert
 (let (($x1060 (= z_0_19_1 (and z_1_19_1 z_1_19_2 z_1_19_3))))
 (=> x_0_G $x1060)))
(assert
 (=> x_0_! (= z_0_19_2 (not z_1_19_2))))
(assert
 (let (($x1070 (= z_0_19_2 z_1_19_3)))
 (=> x_0_X $x1070)))
(assert
 (let (($x1074 (= z_0_19_2 (or z_1_19_2 z_1_19_3))))
 (=> x_0_F $x1074)))
(assert
 (let (($x1078 (= z_0_19_2 (and z_1_19_2 z_1_19_3))))
 (=> x_0_G $x1078)))
(assert
 (=> x_0_! (= z_0_19_3 (not z_1_19_3))))
(assert
 (let (($x1088 (= z_0_19_3 z_1_19_3)))
 (=> x_0_X $x1088)))
(assert
 (=> x_0_F (= z_0_19_3 (or z_1_19_3))))
(assert
 (=> x_0_G (= z_0_19_3 (and z_1_19_3))))
(assert
 (or x_0_! x_0_X x_0_F x_0_G))
(assert
 (let (($x48 (not x_0_G)))
 (let (($x42 (not x_0_F)))
 (let (($x1105 (or $x42 $x48)))
 (let (($x36 (not x_0_X)))
 (let (($x1104 (or $x36 $x48)))
 (let (($x1103 (or $x36 $x42)))
 (let (($x31 (not x_0_!)))
 (let (($x1102 (or $x31 $x48)))
 (let (($x1101 (or $x31 $x42)))
 (let (($x1100 (or $x31 $x36)))
 (and $x1100 $x1101 $x1102 $x1103 $x1104 $x1105))))))))))))
(assert
 z_1_0_0)
(assert
 z_1_1_0)
(assert
 z_1_2_0)
(assert
 z_1_3_0)
(assert
 z_1_4_0)
(assert
 z_1_5_0)
(assert
 z_1_6_0)
(assert
 z_1_7_0)
(assert
 z_1_8_0)
(assert
 z_1_9_0)
(assert
 z_1_10_0)
(assert
 (not z_1_10_1))
(assert
 z_1_10_2)
(assert
 z_1_11_0)
(assert
 z_1_11_1)
(assert
 (not z_1_11_2))
(assert
 (not z_1_12_0))
(assert
 (not z_1_12_1))
(assert
 z_1_12_2)
(assert
 z_1_12_3)
(assert
 (not z_1_13_0))
(assert
 (not z_1_13_1))
(assert
 (not z_1_13_2))
(assert
 z_1_13_3)
(assert
 (not z_1_14_0))
(assert
 (not z_1_14_1))
(assert
 (not z_1_14_2))
(assert
 (not z_1_14_3))
(assert
 (not z_1_14_4))
(assert
 (not z_1_14_5))
(assert
 (not z_1_14_6))
(assert
 z_1_14_7)
(assert
 (not z_1_15_0))
(assert
 z_1_15_1)
(assert
 (not z_1_15_2))
(assert
 (not z_1_15_3))
(assert
 z_1_15_4)
(assert
 (not z_1_15_5))
(assert
 (not z_1_16_0))
(assert
 z_1_16_1)
(assert
 (not z_1_16_2))
(assert
 (not z_1_16_3))
(assert
 (not z_1_16_4))
(assert
 z_1_16_5)
(assert
 z_1_16_6)
(assert
 z_1_17_0)
(assert
 (not z_1_17_1))
(assert
 z_1_18_0)
(assert
 (not z_1_18_1))
(assert
 z_1_18_2)
(assert
 (not z_1_18_3))
(assert
 (not z_1_18_4))
(assert
 z_1_18_5)
(assert
 (not z_1_18_6))
(assert
 z_1_19_0)
(assert
 (not z_1_19_1))
(assert
 z_1_19_2)
(assert
 (not z_1_19_3))
(check-sat)

